% demand
num_movements = 17;
loading_factor = [1450, 1850, 1500, 1400, 800, 900, 1450, 1450, 1900, 1800, 1250, 1200, 850, 1250, 800, 800, 1300];
pickup_time = [0, 0, 0, 0, 0, 2, 4, 4, 6, 6, 6, 6, 6, 7, 8, 8, 8];
delivery_time = [3, 6, 6, 1, 3, 3, 5, 5, 8, 8, 7, 8, 8, 9, 9, 9, 9];

% transporter definition
total_capacity = 7000;
num_decks = 3;
capacity = [3000, 1000, 3000];

% ways out of decks
num_ways_out = 1;
paths_out = array3d(decks, ways_out, decks, [
% ways out of deck d1
2, 3, 0, 

% ways out of deck d2
3, 0, 0, 

% ways out of deck d3
0, 0, 0,	

]);

